p cnf 65 210
31 32 33 34 35 36 37 38 0
47 48 49 50 51 52 0
53 54 55 56 57 58 59 60 0
-1 -5 0
-1 -11 0
-1 -19 0
-1 -27 0
-1 -31 0
-1 -39 0
-1 -61 0
-5 -11 0
-5 -19 0
-5 -27 0
-5 -31 0
-5 -39 0
-5 -61 0
-11 -19 0
-11 -27 0
-11 -31 0
-11 -39 0
-11 -61 0
-19 -27 0
-19 -31 0
-19 -39 0
-19 -61 0
-27 -31 0
-27 -39 0
-27 -61 0
-31 -39 0
-31 -61 0
-39 -61 0
-2 -6 0
-2 -12 0
-2 -32 0
-2 -40 0
-2 -47 0
-2 -53 0
-6 -12 0
-6 -32 0
-6 -40 0
-6 -47 0
-6 -53 0
-12 -32 0
-12 -40 0
-12 -47 0
-12 -53 0
-32 -40 0
-32 -47 0
-32 -53 0
-40 -47 0
-40 -53 0
-47 -53 0
-7 -13 0
-7 -20 0
-7 -28 0
-7 -41 0
-7 -48 0
-7 -54 0
-13 -20 0
-13 -28 0
-13 -41 0
-13 -48 0
-13 -54 0
-20 -28 0
-20 -41 0
-20 -48 0
-20 -54 0
-28 -41 0
-28 -48 0
-28 -54 0
-41 -48 0
-41 -54 0
-48 -54 0
-3 -8 0
-3 -14 0
-3 -21 0
-3 -33 0
-3 -42 0
-3 -49 0
-3 -55 0
-8 -14 0
-8 -21 0
-8 -33 0
-8 -42 0
-8 -49 0
-8 -55 0
-14 -21 0
-14 -33 0
-14 -42 0
-14 -49 0
-14 -55 0
-21 -33 0
-21 -42 0
-21 -49 0
-21 -55 0
-33 -42 0
-33 -49 0
-33 -55 0
-42 -49 0
-42 -55 0
-49 -55 0
-9 -15 0
-9 -22 0
-9 -29 0
-9 -34 0
-9 -43 0
-9 -50 0
-9 -56 0
-9 -62 0
-15 -22 0
-15 -29 0
-15 -34 0
-15 -43 0
-15 -50 0
-15 -56 0
-15 -62 0
-22 -29 0
-22 -34 0
-22 -43 0
-22 -50 0
-22 -56 0
-22 -62 0
-29 -34 0
-29 -43 0
-29 -50 0
-29 -56 0
-29 -62 0
-34 -43 0
-34 -50 0
-34 -56 0
-34 -62 0
-43 -50 0
-43 -56 0
-43 -62 0
-50 -56 0
-50 -62 0
-56 -62 0
-16 -23 0
-16 -30 0
-16 -35 0
-16 -44 0
-16 -57 0
-16 -63 0
-23 -30 0
-23 -35 0
-23 -44 0
-23 -57 0
-23 -63 0
-30 -35 0
-30 -44 0
-30 -57 0
-30 -63 0
-35 -44 0
-35 -57 0
-35 -63 0
-44 -57 0
-44 -63 0
-57 -63 0
-24 -36 0
-24 -51 0
-24 -58 0
-24 -64 0
-36 -51 0
-36 -58 0
-36 -64 0
-51 -58 0
-51 -64 0
-58 -64 0
-17 -25 0
-17 -37 0
-17 -45 0
-17 -52 0
-17 -59 0
-17 -65 0
-25 -37 0
-25 -45 0
-25 -52 0
-25 -59 0
-25 -65 0
-37 -45 0
-37 -52 0
-37 -59 0
-37 -65 0
-45 -52 0
-45 -59 0
-45 -65 0
-52 -59 0
-52 -65 0
-59 -65 0
-4 -10 0
-4 -18 0
-4 -26 0
-4 -38 0
-4 -46 0
-4 -60 0
-10 -18 0
-10 -26 0
-10 -38 0
-10 -46 0
-10 -60 0
-18 -26 0
-18 -38 0
-18 -46 0
-18 -60 0
-26 -38 0
-26 -46 0
-26 -60 0
-38 -46 0
-38 -60 0
-46 -60 0
